(set-info :Origin "This instance was generated by: BanditFuzz-- an RL fuzzer for SMT solvers" )
(set-info :Author "Joe Scott, Fed Mora, Vijay Ganesh" )
(set-info :Contact "Joe Scott, joseph.scott@uwaterloo.ca")
(set-logic QF_BV)
(declare-const bool_0 Bool)
(declare-const bool_1 Bool)
(declare-const bool_2 Bool)
(declare-const bool_3 Bool)
(declare-const bool_4 Bool)
(declare-const bv_0 (_ BitVec 32))
(declare-const bv_1 (_ BitVec 32))
(declare-const bv_2 (_ BitVec 32))
(declare-const bv_3 (_ BitVec 32))
(declare-const bv_4 (_ BitVec 32))
(assert (bvule (bvsrem (bvxnor bv_0 bv_0) (bvsmod #x60ca7e8c  #x2e8f7eb1 )) (bvsub (bvor bv_0 #x0e9c7c06 ) (bvnand #x8fdf5251  bv_1))))
(assert (not (bvugt (bvsdiv #xe783a6b7  #x69fade94 ) (bvudiv bv_3 bv_0))))
(assert (bvsge (bvxor (bvnand #xa417bd53  #x72b36007 ) (bvxor #xc41abb74  bv_1)) (bvurem (bvsmod bv_2 #xb55d13ee ) (bvor bv_4 #xfe4a856b ))))
(assert (or (xor (bvule bv_3 bv_0) (bvslt #x37618b05  #x4237b4f3 )) (or (bvult bv_2 bv_0) (or bool_1 bool_4))))
(assert (bvsge (bvlshr (bvxnor bv_4 #x84fefcde ) (bvmul #xc6c97b3a  #x9bbe62c5 )) (bvashr (bvsub #xf4aa9f66  #xf06a063f ) (bvor bv_0 bv_0))))
(check-sat)
(exit)
